NAME 
ROWS
 N  OBJ
 L  R0      
 E  R1      
 E  R2      
 E  R3      
 E  R4      
 E  R5      
 E  R6      
 E  R7      
 E  R8      
 E  R9      
 E  R10     
 E  R11     
 E  R12     
 E  R13     
 E  R14     
 E  R15     
 E  R16     
 E  R17     
 E  R18     
 E  R19     
 E  R20     
COLUMNS
    MARKER    'MARKER'                 'INTORG'
    I0(9)     OBJ       -16
    I0(9)     R0        -117
    I0(9)     R1        12
    I0(9)     R2        2
    I0(9)     R3        9
    I0(9)     R6        8
    I0(9)     R7        5
    I0(9)     R8        15
    I0(9)     R9        10
    I0(9)     R20       1
    I1(9)     OBJ       157
    I1(9)     R0        147
    I1(9)     R1        13
    I1(9)     R2        14
    I1(9)     R5        13
    I1(9)     R6        5
    I1(9)     R7        19
    I1(9)     R8        17
    I1(9)     R9        10
    I1(9)     R20       1
    I2(8)     OBJ       123
    I2(8)     R0        23
    I2(8)     R2        15
    I2(8)     R4        9
    I2(8)     R5        13
    I2(8)     R6        13
    I2(8)     R11       14
    I2(8)     R12       11
    I2(8)     R20       1
    I3(11)    OBJ       108
    I3(11)    R0        -196
    I3(11)    R2        16
    I3(11)    R3        14
    I3(11)    R4        14
    I3(11)    R5        5
    I3(11)    R6        16
    I3(11)    R7        12
    I3(11)    R8        13
    I3(11)    R10       17
    I3(11)    R11       14
    I3(11)    R20       1
    I4(6)     OBJ       46
    I4(6)     R0        -49
    I4(6)     R2        7
    I4(6)     R3        10
    I4(6)     R9        11
    I4(6)     R11       19
    I4(6)     R20       1
    I5(9)     OBJ       115
    I5(9)     R0        -71
    I5(9)     R2        -1
    I5(9)     R3        19
    I5(9)     R4        15
    I5(9)     R5        -1
    I5(9)     R6        7
    I5(9)     R7        7
    I5(9)     R10       7
    I5(9)     R20       1
    I6(10)    OBJ       90
    I6(10)    R0        191
    I6(10)    R1        8
    I6(10)    R2        19
    I6(10)    R4        6
    I6(10)    R6        -1
    I6(10)    R7        8
    I6(10)    R9        18
    I6(10)    R10       6
    I6(10)    R12       17
    I6(10)    R20       1
    I7(8)     OBJ       -140
    I7(8)     R0        40
    I7(8)     R1        1
    I7(8)     R3        6
    I7(8)     R5        5
    I7(8)     R6        18
    I7(8)     R9        7
    I7(8)     R11       17
    I7(8)     R20       1
    I8(6)     OBJ       87
    I8(6)     R0        -168
    I8(6)     R1        1
    I8(6)     R6        14
    I8(6)     R9        7
    I8(6)     R11       7
    I8(6)     R20       1
    I9(10)    OBJ       199
    I9(10)    R0        -139
    I9(10)    R1        8
    I9(10)    R4        11
    I9(10)    R5        12
    I9(10)    R7        4
    I9(10)    R8        1
    I9(10)    R9        3
    I9(10)    R10       13
    I9(10)    R11       10
    I9(10)    R20       1
    I10(8)    OBJ       175
    I10(8)    R0        199
    I10(8)    R3        11
    I10(8)    R4        6
    I10(8)    R5        4
    I10(8)    R6        15
    I10(8)    R8        17
    I10(8)    R12       15
    I10(8)    R20       1
    I11(8)    OBJ       35
    I11(8)    R0        172
    I11(8)    R3        15
    I11(8)    R4        10
    I11(8)    R5        17
    I11(8)    R6        11
    I11(8)    R8        17
    I11(8)    R12       4
    I11(8)    R20       1
    MARKER    'MARKER'                 'INTEND'
    C12(9)    OBJ       6
    C12(9)    R5        9
    C12(9)    R9        10
    C12(9)    R11       10
    C12(9)    R12       9
    C12(9)    R13       12
    C12(9)    R14       9
    C12(9)    R16       2
    C12(9)    R17       12
    C12(9)    R18       12
    C13(10)   OBJ       -1
    C13(10)   R0        2
    C13(10)   R2        5
    C13(10)   R3        18
    C13(10)   R5        8
    C13(10)   R8        6
    C13(10)   R9        1
    C13(10)   R14       14
    C13(10)   R16       17
    C13(10)   R17       4
    C13(10)   R18       -1
    C14(8)    R0        4
    C14(8)    R8        16
    C14(8)    R9        3
    C14(8)    R10       6
    C14(8)    R12       4
    C14(8)    R13       3
    C14(8)    R18       12
    C14(8)    R19       7
    C15(11)   OBJ       -4
    C15(11)   R0        8
    C15(11)   R2        5
    C15(11)   R4        9
    C15(11)   R7        17
    C15(11)   R9        6
    C15(11)   R11       -1
    C15(11)   R12       6
    C15(11)   R13       8
    C15(11)   R15       5
    C15(11)   R17       19
    C15(11)   R18       1
    C16(11)   OBJ       -1
    C16(11)   R0        7
    C16(11)   R1        12
    C16(11)   R2        10
    C16(11)   R3        6
    C16(11)   R4        11
    C16(11)   R7        6
    C16(11)   R8        4
    C16(11)   R11       1
    C16(11)   R13       6
    C16(11)   R16       16
    C16(11)   R18       11
    C17(7)    OBJ       -4
    C17(7)    R0        2
    C17(7)    R2        -1
    C17(7)    R10       12
    C17(7)    R11       18
    C17(7)    R12       12
    C17(7)    R15       4
    C17(7)    R17       -1
    C18(8)    OBJ       -5
    C18(8)    R1        19
    C18(8)    R3        16
    C18(8)    R4        14
    C18(8)    R5        4
    C18(8)    R12       6
    C18(8)    R14       16
    C18(8)    R15       12
    C18(8)    R16       1
    C19(12)   OBJ       -9
    C19(12)   R0        -2
    C19(12)   R2        4
    C19(12)   R5        12
    C19(12)   R6        15
    C19(12)   R7        2
    C19(12)   R8        6
    C19(12)   R10       18
    C19(12)   R12       -1
    C19(12)   R13       7
    C19(12)   R15       1
    C19(12)   R16       5
    C19(12)   R19       16
    C20(1)    R1        1
    C21(1)    R2        1
    C22(1)    R3        1
    C23(1)    R4        1
    C24(1)    R5        1
    C25(1)    R6        1
    C26(1)    R7        1
    C27(1)    R8        1
    C28(1)    R9        1
    C29(1)    R10       1
    C30(1)    R11       1
    C31(1)    R12       1
    C32(1)    R13       1
    C33(1)    R14       1
    C34(1)    R15       1
    C35(1)    R16       1
    C36(1)    R17       1
    C37(1)    R18       1
    C38(1)    R19       1
    C39(1)    R20       1
RHS
    RHS1      R0        -3.9695473251028659e+00
    RHS1      R1        98
    RHS1      R2        98
    RHS1      R3        85
    RHS1      R4        92
    RHS1      R5        57
    RHS1      R6        50
    RHS1      R7        55
    RHS1      R8        86
    RHS1      R9        76
    RHS1      R10       93
    RHS1      R11       92
    RHS1      R12       96
    RHS1      R13       82
    RHS1      R14       65
    RHS1      R15       50
    RHS1      R16       76
    RHS1      R17       60
    RHS1      R18       95
    RHS1      R19       53
    RHS1      R20       4
BOUNDS
 UP BND1      I0(9)     2
 UP BND1      I1(9)     2
 UP BND1      I2(8)     2
 UP BND1      I3(11)    2
 UP BND1      I4(6)     2
 UP BND1      I5(9)     2
 UP BND1      I6(10)    2
 UP BND1      I7(8)     2
 UP BND1      I8(6)     2
 UP BND1      I9(10)    2
 UP BND1      I10(8)    2
 UP BND1      I11(8)    2
ENDATA
